10255
1 1 0 0 0 1 0 0 0 0 1 0 1 1 1 1 0 0 0 0 
15 10 10 14 12 12 5 5 15 1 5 14 5 13 0 13 12 5 5 15 10 10 10 14 10 14 1 14 15 1 1 5 15 15 15 0 13 15 10 10 15 13 0 13 15 0 5 1 5 15 15 5 14 10 14 10 15 13 12 12 15 5 15 15 15 15 10 14 15 15 15 10 10 10 10 10 10 15 10 15 10 5 15 0 12 13 13 5 5 1 13 13 13 5 13 13 13 13 13 13 